% demand
num_movements = 30;
loading_factor = [1850, 1350, 1350, 1850, 1800, 1100, 1350, 1850, 850, 1150, 1400, 850, 850, 1150, 1300, 1450, 950, 1100, 1900, 1050, 1550, 1800, 1400, 1000, 1850, 1250, 850, 1250, 1400, 1300];
pickup_time = [0, 0, 1, 2, 3, 5, 5, 5, 5, 6, 6, 6, 6, 8, 8, 8, 9, 9, 9, 9, 10, 10, 10, 10, 11, 11, 11, 11, 12, 12];
delivery_time = [3, 2, 6, 3, 4, 6, 6, 6, 9, 7, 7, 10, 7, 10, 9, 9, 11, 10, 10, 10, 11, 12, 11, 11, 12, 12, 12, 12, 13, 13];

% transporter definition
total_capacity = 7000;
num_decks = 3;
capacity = [3000, 1000, 3000];

% ways out of decks
num_ways_out = 1;
paths_out = array3d(decks, ways_out, decks, [
% ways out of deck d1
2, 3, 0, 

% ways out of deck d2
3, 0, 0, 

% ways out of deck d3
0, 0, 0,	

]);

